c turning on binary mode checking
c parsing input formula with 259840 variables and 1039934 clauses
c finished parsing, read 3019097 bytes from proof file
c detected empty clause; start verification via backward checking
c 3711 of 1039934 clauses in core                            
c 1005 of 120133 lemmas in core using 20526 resolution steps
c 0 RAT lemmas in core; 58 redundant literals in core lemmas
s VERIFIED
c verification time: 1.115 seconds
